SimulationType                MonteCarlo
NumberOfCycles                100000
NumberOfInitializationCycles  50000
PrintEvery                    5000
RestartFile                   no

ContinueAfterCrash no
WriteBinaryRestartFileEvery 5000

ChargeMethod                  Ewald
Forcefield                    GenericMOFs
CutOffVDW                     12.0
RemoveAtomNumberCodeFromLabel no

Framework             0
FrameworkName         ZIF-8
UseChargesFromCIFFile yes
UnitCells             2 2 2
HeliumVoidFraction    0.482632
ExternalTemperature   433
ExternalPressure    1


Component 0 MoleculeName              methane
            StartingBead              0
            MoleculeDefinition        TraPPE
            IdealGasRosenbluthWeight  1
            FugacityCoefficient       1.0
            TranslationProbability    1.0
            RotationProbability       1.0
            ReinsertionProbability    1.0
            CBMCProbability           1.0
            IdentityChangeProbability 0.0
            SwapProbability           1.0
            CreateNumberOfMolecules   0
